ilp_joint_2/output/crop rotation_ilp.lp
Maximize
  0.00214678952055614 Z_59_1_0 + 0.00590177810827253 Z_59_1_1
   + 0.0404440243803409 Z_59_1_2 + 0.3726897049451287 Z_59_1_3
   + 0.000975436 Z_92_1_0 + 0.00180525208018045 Z_92_1_1
   + 0.00884598112718471 Z_92_1_2 + 0.3654154151265173 Z_92_1_3
   + 0.000975436 Z_92_2_0 + 0.00180525208018045 Z_92_2_1
   + 0.00884598112718471 Z_92_2_2 + 0.3654154151265173 Z_92_2_3
   + 0.000975436 Z_92_3_0 + 0.00180525208018045 Z_92_3_1
   + 0.00884598112718471 Z_92_3_2 + 0.3654154151265173 Z_92_3_3
Subject To
 constraint1_591: Z_59_1_0 + Z_59_1_1 + Z_59_1_2 + Z_59_1_3 <= 1
 constraint1_921: Z_92_1_0 + Z_92_1_1 + Z_92_1_2 + Z_92_1_3 <= 1
 constraint1_922: Z_92_2_0 + Z_92_2_1 + Z_92_2_2 + Z_92_2_3 <= 1
 constraint1_923: Z_92_3_0 + Z_92_3_1 + Z_92_3_2 + Z_92_3_3 <= 1
 constraint2_590: Z_59_1_0 <= 1
 constraint2_591: Z_59_1_1 <= 1
 constraint2_592: Z_59_1_2 <= 1
 constraint2_593: Z_59_1_3 <= 1
 constraint2_920: Z_92_1_0 + Z_92_2_0 + Z_92_3_0 <= 1
 constraint2_921: Z_92_1_1 + Z_92_2_1 + Z_92_3_1 <= 1
 constraint2_922: Z_92_1_2 + Z_92_2_2 + Z_92_3_2 <= 1
 constraint2_923: Z_92_1_3 + Z_92_2_3 + Z_92_3_3 <= 1
Bounds
Binaries
 Z_59_1_0 Z_59_1_1 Z_59_1_2 Z_59_1_3 Z_92_1_0 Z_92_1_1 Z_92_1_2 Z_92_1_3
 Z_92_2_0 Z_92_2_1 Z_92_2_2 Z_92_2_3 Z_92_3_0 Z_92_3_1 Z_92_3_2 Z_92_3_3
End
