ilp_joint_2/output/crop rotation_ilp.mps
NAME crop rotation_srl_ilp
* Max problem is converted into Min one
ROWS
 N  OBJ
 L  constraint1_591
 L  constraint1_921
 L  constraint1_922
 L  constraint1_923
 L  constraint2_590
 L  constraint2_591
 L  constraint2_592
 L  constraint2_593
 L  constraint2_920
 L  constraint2_921
 L  constraint2_922
 L  constraint2_923
COLUMNS
    MARKER    'MARKER'                 'INTORG'
    Z_59_1_0  OBJ       -2.1467895205561360e-03
    Z_59_1_0  constraint1_591  1
    Z_59_1_0  constraint2_590  1
    Z_59_1_1  OBJ       -5.9017781082725262e-03
    Z_59_1_1  constraint1_591  1
    Z_59_1_1  constraint2_591  1
    Z_59_1_2  OBJ       -4.0444024380340948e-02
    Z_59_1_2  constraint1_591  1
    Z_59_1_2  constraint2_592  1
    Z_59_1_3  OBJ       -3.7268970494512865e-01
    Z_59_1_3  constraint1_591  1
    Z_59_1_3  constraint2_593  1
    Z_92_1_0  OBJ       -9.7543601460409191e-04
    Z_92_1_0  constraint1_921  1
    Z_92_1_0  constraint2_920  1
    Z_92_1_1  OBJ       -1.8052520801804528e-03
    Z_92_1_1  constraint1_921  1
    Z_92_1_1  constraint2_921  1
    Z_92_1_2  OBJ       -8.8459811271847100e-03
    Z_92_1_2  constraint1_921  1
    Z_92_1_2  constraint2_922  1
    Z_92_1_3  OBJ       -3.6541541512651732e-01
    Z_92_1_3  constraint1_921  1
    Z_92_1_3  constraint2_923  1
    Z_92_2_0  OBJ       -9.7543601460409191e-04
    Z_92_2_0  constraint1_922  1
    Z_92_2_0  constraint2_920  1
    Z_92_2_1  OBJ       -1.8052520801804528e-03
    Z_92_2_1  constraint1_922  1
    Z_92_2_1  constraint2_921  1
    Z_92_2_2  OBJ       -8.8459811271847100e-03
    Z_92_2_2  constraint1_922  1
    Z_92_2_2  constraint2_922  1
    Z_92_2_3  OBJ       -3.6541541512651732e-01
    Z_92_2_3  constraint1_922  1
    Z_92_2_3  constraint2_923  1
    Z_92_3_0  OBJ       -9.7543601460409191e-04
    Z_92_3_0  constraint1_923  1
    Z_92_3_0  constraint2_920  1
    Z_92_3_1  OBJ       -1.8052520801804528e-03
    Z_92_3_1  constraint1_923  1
    Z_92_3_1  constraint2_921  1
    Z_92_3_2  OBJ       -8.8459811271847100e-03
    Z_92_3_2  constraint1_923  1
    Z_92_3_2  constraint2_922  1
    Z_92_3_3  OBJ       -3.6541541512651732e-01
    Z_92_3_3  constraint1_923  1
    Z_92_3_3  constraint2_923  1
    MARKER    'MARKER'                 'INTEND'
RHS
    RHS1      constraint1_591  1
    RHS1      constraint1_921  1
    RHS1      constraint1_922  1
    RHS1      constraint1_923  1
    RHS1      constraint2_590  1
    RHS1      constraint2_591  1
    RHS1      constraint2_592  1
    RHS1      constraint2_593  1
    RHS1      constraint2_920  1
    RHS1      constraint2_921  1
    RHS1      constraint2_922  1
    RHS1      constraint2_923  1
BOUNDS
 UP BND1      Z_59_1_0  1
 UP BND1      Z_59_1_1  1
 UP BND1      Z_59_1_2  1
 UP BND1      Z_59_1_3  1
 UP BND1      Z_92_1_0  1
 UP BND1      Z_92_1_1  1
 UP BND1      Z_92_1_2  1
 UP BND1      Z_92_1_3  1
 UP BND1      Z_92_2_0  1
 UP BND1      Z_92_2_1  1
 UP BND1      Z_92_2_2  1
 UP BND1      Z_92_2_3  1
 UP BND1      Z_92_3_0  1
 UP BND1      Z_92_3_1  1
 UP BND1      Z_92_3_2  1
 UP BND1      Z_92_3_3  1
ENDATA
