ilp_joint_2/output/crop rotation_ilp.sol
# Solution for model crop rotation_srl_ilp
# Objective value = 7.4875635327901113e-01
Z_59_1_0 0
Z_59_1_1 0
Z_59_1_2 0
Z_59_1_3 1
Z_92_1_0 0
Z_92_1_1 0
Z_92_1_2 0
Z_92_1_3 1
Z_92_2_0 0
Z_92_2_1 1
Z_92_2_2 0
Z_92_2_3 0
Z_92_3_0 0
Z_92_3_1 0
Z_92_3_2 1
Z_92_3_3 0
